(set-logic HORN)
(set-info :source |
    Benchmark: 
    Output by Princess (http://www.philipp.ruemmer.org/princess.shtml)
|)
(declare-heap Heap Addr HeapObject
 defObj
 ((HeapObject 0) (node 0)) (
  (
   (O_Int (getInt Int))
   (O_UInt (getUInt Int))
   (O_Addr (getAddr Addr))
   (O_AddrRange (getAddrRange AddrRange))
   (O_node (getnode node))
   (defObj)
  )
  (
   (node (|node::h| Int) (|node::n| Addr))
  )
))
(declare-fun _Glue6_exp_exp (Addr Int Addr Addr Heap Addr HeapObject) Bool)
(declare-fun inv_main_22 (Heap Addr) Bool)
(declare-fun _Glue4 (Addr Addr Addr Heap HeapObject) Bool)
(declare-fun _Glue9 (Addr Addr Addr Heap HeapObject) Bool)
(declare-fun inv_main_23 (Heap Addr) Bool)
(declare-fun inv_main_3 (Heap Addr Addr) Bool)
(declare-fun _Glue0 (Addr Addr Heap Addr HeapObject) Bool)
(declare-fun _Glue1_exp_exp (Addr Int Addr Addr Heap Addr HeapObject) Bool)
(declare-fun inv_main535_3 (Heap Addr Addr) Bool)
(declare-fun Inv_Heap_exp_exp (Addr Int Addr) Bool)
(assert (forall ((var0 HeapObject) (var1 node) (var2 Heap) (var3 Addr) (var4 Addr)) (or (not (and (and (Inv_Heap_exp_exp var4 1 var3) (inv_main_23 var2 var4)) (and (and (and (= (O_node var1) var0) (= (node 1 var3) var1)) (= (read var2 var4) var0)) (valid var2 var4)))) (inv_main_23 var2 var3))))
(assert (forall ((var0 Addr) (var1 node) (var2 HeapObject) (var3 Addr) (var4 Heap)) (or (not (and (inv_main_23 var4 var3) (and (and (and (and (= (read var4 var3) var2) (= (getnode var2) var1)) (= (|node::h| var1) 1)) (= (|node::n| var1) var0)) (not (valid var4 var3))))) (inv_main_23 var4 var0))))
(assert (forall ((var0 Addr) (var1 Addr) (var2 Heap)) (or (not (inv_main535_3 var2 var1 var0)) (inv_main_3 var2 var1 var0))))
(assert (forall ((var0 HeapObject) (var1 node) (var2 Heap) (var3 Addr) (var4 Addr)) (or (not (and (and (Inv_Heap_exp_exp var4 2 var3) (inv_main_22 var2 var4)) (and (and (and (= (O_node var1) var0) (= (node 2 var3) var1)) (= (read var2 var4) var0)) (valid var2 var4)))) (inv_main_22 var2 var3))))
(assert (forall ((var0 Addr) (var1 node) (var2 HeapObject) (var3 Addr) (var4 Heap)) (or (not (and (inv_main_22 var4 var3) (and (and (and (and (= (read var4 var3) var2) (= (getnode var2) var1)) (= (|node::h| var1) 2)) (= (|node::n| var1) var0)) (not (valid var4 var3))))) (inv_main_22 var4 var0))))
(assert (forall ((var0 Addr) (var1 HeapObject) (var2 node) (var3 Addr) (var4 Heap) (var5 Addr) (var6 Int) (var7 Addr)) (or (not (and (and (Inv_Heap_exp_exp var7 var6 var5) (inv_main_3 var4 var3 var7)) (and (and (and (= (O_node var2) var1) (= (node var6 var5) var2)) (= (read var4 var7) var1)) (valid var4 var7)))) (_Glue0 var0 var3 var4 var7 var1))))
(assert (forall ((var0 Addr) (var1 HeapObject) (var2 Addr) (var3 Addr) (var4 Heap)) (or (not (and (inv_main_3 var4 var3 var2) (and (= (read var4 var2) var1) (not (valid var4 var2))))) (_Glue0 var0 var3 var4 var2 var1))))
(assert (forall ((var0 Int) (var1 Addr) (var2 node) (var3 HeapObject) (var4 Addr) (var5 Heap) (var6 Addr)) (or (not (and (_Glue0 var6 var6 var5 var4 var3) (and (and (and (= (getnode var3) var2) (= (|node::n| var2) var1)) (valid var5 var4)) (= var0 3)))) (Inv_Heap_exp_exp var4 var0 var1))))
(assert (forall ((var0 Heap) (var1 HeapObject) (var2 node) (var3 Addr) (var4 node) (var5 HeapObject) (var6 Addr) (var7 Heap) (var8 Addr)) (or (not (and (_Glue0 var8 var8 var7 var6 var5) (and (and (and (and (= (getnode var5) var4) (= (|node::n| var4) var3)) (= (node 3 var3) var2)) (= (O_node var2) var1)) (= (write var7 var6 var1) var0)))) (inv_main_22 var0 var8))))
(assert (forall ((var0 Addr) (var1 Addr) (var2 AllocResHeap) (var3 Heap) (var4 Addr) (var5 Int) (var6 HeapObject) (var7 node)) (or (not (and (and (and (and (and (and (= (O_node var7) var6) (= (node var5 var4) var7)) (= (alloc var3 var6) var2)) (= (newAddr var2) var1)) (not (= var1 var0))) (= nullAddr var0)) (= emptyHeap var3))) (Inv_Heap_exp_exp (newAddr var2) var5 var4))))
(assert (forall ((var0 Addr) (var1 Addr) (var2 Addr) (var3 Heap) (var4 AllocResHeap) (var5 Heap) (var6 HeapObject) (var7 node)) (or (not (and (and (and (and (and (and (and (= (O_node var7) var6) (= (alloc var5 var6) var4)) (= (newHeap var4) var3)) (= (newAddr var4) var2)) (not (= var2 var1))) (= nullAddr var1)) (= emptyHeap var5)) (= var0 var2))) (inv_main535_3 var3 var0 var2))))
(assert (forall ((var0 Addr) (var1 Int) (var2 Addr) (var3 HeapObject) (var4 node) (var5 Addr) (var6 Heap) (var7 Addr) (var8 Int) (var9 Addr)) (or (not (and (and (Inv_Heap_exp_exp var9 var8 var7) (inv_main535_3 var6 var5 var9)) (and (and (and (and (= (O_node var4) var3) (= (node var8 var7) var4)) (= nullAddr var2)) (= (read var6 var9) var3)) (valid var6 var9)))) (_Glue1_exp_exp var2 var1 var0 var5 var6 var9 var3))))
(assert (forall ((var0 Addr) (var1 Int) (var2 HeapObject) (var3 Addr) (var4 Addr) (var5 Addr) (var6 Heap)) (or (not (and (inv_main535_3 var6 var5 var4) (and (and (= nullAddr var3) (= (read var6 var4) var2)) (not (valid var6 var4))))) (_Glue1_exp_exp var3 var1 var0 var5 var6 var4 var2))))
(assert (forall ((var0 Int) (var1 Addr) (var2 node) (var3 HeapObject) (var4 Addr) (var5 Heap) (var6 Addr) (var7 Addr) (var8 Int) (var9 Addr)) (or (not (and (_Glue1_exp_exp var9 var8 var7 var6 var5 var4 var3) (and (and (and (= (getnode var3) var2) (= (|node::n| var2) var1)) (valid var5 var4)) (= var0 1)))) (Inv_Heap_exp_exp var4 var0 var1))))
(assert (forall ((var0 node) (var1 AllocResHeap) (var2 Heap) (var3 HeapObject) (var4 node) (var5 Addr) (var6 HeapObject) (var7 node) (var8 HeapObject) (var9 Addr) (var10 Heap) (var11 Addr) (var12 Addr) (var13 Int) (var14 Addr)) (or (not (and (_Glue1_exp_exp var14 var13 var12 var11 var10 var9 var8) (and (and (and (and (and (and (and (= (O_node var7) var6) (= (node 1 var5) var4)) (= (O_node var4) var3)) (= (node var13 var12) var7)) (= (alloc var2 var6) var1)) (= (getnode var8) var0)) (= (|node::n| var0) var5)) (= (write var10 var9 var3) var2)))) (Inv_Heap_exp_exp (newAddr var1) var13 var12))))
(assert (forall ((var0 node) (var1 Heap) (var2 HeapObject) (var3 node) (var4 Addr) (var5 HeapObject) (var6 node) (var7 AllocResHeap) (var8 Addr) (var9 Heap) (var10 HeapObject) (var11 node) (var12 HeapObject) (var13 Heap) (var14 Addr) (var15 Addr) (var16 Int) (var17 Addr) (var18 Addr) (var19 Int) (var20 Addr)) (or (not (and (and (Inv_Heap_exp_exp var20 var19 var18) (_Glue1_exp_exp var17 var16 var15 var14 var13 var20 var12)) (and (and (and (and (and (and (and (and (and (and (and (and (and (= (O_node var11) var10) (= (AllocResHeap var9 var8) var7)) (= (O_node var6) var5)) (= (node 1 var4) var3)) (= (O_node var3) var2)) (= (node var19 var18) var11)) (= (node var16 var15) var6)) (not (= var8 var17))) (= (read var9 var20) var10)) (valid var9 var20)) (= (alloc var1 var5) var7)) (= (getnode var12) var0)) (= (|node::n| var0) var4)) (= (write var13 var20 var2) var1)))) (_Glue4 var20 var14 var8 var9 var10))))
(assert (forall ((var0 node) (var1 Heap) (var2 HeapObject) (var3 HeapObject) (var4 node) (var5 Addr) (var6 HeapObject) (var7 node) (var8 AllocResHeap) (var9 Addr) (var10 Heap) (var11 HeapObject) (var12 Addr) (var13 Heap) (var14 Addr) (var15 Addr) (var16 Int) (var17 Addr)) (or (not (and (_Glue1_exp_exp var17 var16 var15 var14 var13 var12 var11) (and (and (and (and (and (and (and (and (and (and (and (= (AllocResHeap var10 var9) var8) (= (O_node var7) var6)) (= (node 1 var5) var4)) (= (O_node var4) var3)) (= (node var16 var15) var7)) (not (= var9 var17))) (= (read var10 var12) var2)) (not (valid var10 var12))) (= (alloc var1 var6) var8)) (= (getnode var11) var0)) (= (|node::n| var0) var5)) (= (write var13 var12 var3) var1)))) (_Glue4 var12 var14 var9 var10 var2))))
(assert (forall ((var0 Int) (var1 node) (var2 HeapObject) (var3 Heap) (var4 Addr) (var5 Addr) (var6 Addr)) (or (not (and (_Glue4 var6 var5 var4 var3 var2) (and (and (= (getnode var2) var1) (= (|node::h| var1) var0)) (valid var3 var6)))) (Inv_Heap_exp_exp var6 var0 var4))))
(assert (forall ((var0 node) (var1 Heap) (var2 HeapObject) (var3 node) (var4 Int) (var5 HeapObject) (var6 node) (var7 HeapObject) (var8 Heap) (var9 Addr) (var10 Addr) (var11 Addr) (var12 Int) (var13 Addr)) (or (not (and (and (Inv_Heap_exp_exp var13 var12 var11) (_Glue4 var13 var10 var9 var8 var7)) (and (and (and (and (and (and (and (and (= (O_node var6) var5) (= (node var4 var9) var3)) (= (O_node var3) var2)) (= (node var12 var11) var6)) (= (read var1 var13) var5)) (valid var1 var13)) (= (getnode var7) var0)) (= (|node::h| var0) var4)) (= (write var8 var13 var2) var1)))) (inv_main535_3 var1 var10 var11))))
(assert (forall ((var0 HeapObject) (var1 node) (var2 Int) (var3 node) (var4 Addr) (var5 node) (var6 HeapObject) (var7 Heap) (var8 HeapObject) (var9 Heap) (var10 Addr) (var11 Addr) (var12 Addr)) (or (not (and (_Glue4 var12 var11 var10 var9 var8) (and (and (and (and (and (and (and (and (= (read var7 var12) var6) (= (getnode var6) var5)) (= (|node::n| var5) var4)) (not (valid var7 var12))) (= (getnode var8) var3)) (= (|node::h| var3) var2)) (= (node var2 var10) var1)) (= (O_node var1) var0)) (= (write var9 var12 var0) var7)))) (inv_main535_3 var7 var11 var4))))
(assert (forall ((var0 Addr) (var1 Int) (var2 Addr) (var3 HeapObject) (var4 node) (var5 Addr) (var6 Heap) (var7 Addr) (var8 Int) (var9 Addr)) (or (not (and (and (Inv_Heap_exp_exp var9 var8 var7) (inv_main_3 var6 var5 var9)) (and (and (and (and (= (O_node var4) var3) (= (node var8 var7) var4)) (= nullAddr var2)) (= (read var6 var9) var3)) (valid var6 var9)))) (_Glue6_exp_exp var2 var1 var0 var5 var6 var9 var3))))
(assert (forall ((var0 Addr) (var1 Int) (var2 HeapObject) (var3 Addr) (var4 Addr) (var5 Addr) (var6 Heap)) (or (not (and (inv_main_3 var6 var5 var4) (and (and (= nullAddr var3) (= (read var6 var4) var2)) (not (valid var6 var4))))) (_Glue6_exp_exp var3 var1 var0 var5 var6 var4 var2))))
(assert (forall ((var0 Int) (var1 Addr) (var2 node) (var3 HeapObject) (var4 Addr) (var5 Heap) (var6 Addr) (var7 Addr) (var8 Int) (var9 Addr)) (or (not (and (_Glue6_exp_exp var9 var8 var7 var6 var5 var4 var3) (and (and (and (= (getnode var3) var2) (= (|node::n| var2) var1)) (valid var5 var4)) (= var0 2)))) (Inv_Heap_exp_exp var4 var0 var1))))
(assert (forall ((var0 node) (var1 AllocResHeap) (var2 Heap) (var3 HeapObject) (var4 node) (var5 Addr) (var6 HeapObject) (var7 node) (var8 HeapObject) (var9 Addr) (var10 Heap) (var11 Addr) (var12 Addr) (var13 Int) (var14 Addr)) (or (not (and (_Glue6_exp_exp var14 var13 var12 var11 var10 var9 var8) (and (and (and (and (and (and (and (= (O_node var7) var6) (= (node 2 var5) var4)) (= (O_node var4) var3)) (= (node var13 var12) var7)) (= (alloc var2 var6) var1)) (= (getnode var8) var0)) (= (|node::n| var0) var5)) (= (write var10 var9 var3) var2)))) (Inv_Heap_exp_exp (newAddr var1) var13 var12))))
(assert (forall ((var0 node) (var1 Heap) (var2 HeapObject) (var3 node) (var4 Addr) (var5 HeapObject) (var6 node) (var7 AllocResHeap) (var8 Addr) (var9 Heap) (var10 HeapObject) (var11 node) (var12 HeapObject) (var13 Heap) (var14 Addr) (var15 Addr) (var16 Int) (var17 Addr) (var18 Addr) (var19 Int) (var20 Addr)) (or (not (and (and (Inv_Heap_exp_exp var20 var19 var18) (_Glue6_exp_exp var17 var16 var15 var14 var13 var20 var12)) (and (and (and (and (and (and (and (and (and (and (and (and (and (= (O_node var11) var10) (= (AllocResHeap var9 var8) var7)) (= (O_node var6) var5)) (= (node 2 var4) var3)) (= (O_node var3) var2)) (= (node var19 var18) var11)) (= (node var16 var15) var6)) (not (= var8 var17))) (= (read var9 var20) var10)) (valid var9 var20)) (= (alloc var1 var5) var7)) (= (getnode var12) var0)) (= (|node::n| var0) var4)) (= (write var13 var20 var2) var1)))) (_Glue9 var20 var14 var8 var9 var10))))
(assert (forall ((var0 node) (var1 Heap) (var2 HeapObject) (var3 HeapObject) (var4 node) (var5 Addr) (var6 HeapObject) (var7 node) (var8 AllocResHeap) (var9 Addr) (var10 Heap) (var11 HeapObject) (var12 Addr) (var13 Heap) (var14 Addr) (var15 Addr) (var16 Int) (var17 Addr)) (or (not (and (_Glue6_exp_exp var17 var16 var15 var14 var13 var12 var11) (and (and (and (and (and (and (and (and (and (and (and (= (AllocResHeap var10 var9) var8) (= (O_node var7) var6)) (= (node 2 var5) var4)) (= (O_node var4) var3)) (= (node var16 var15) var7)) (not (= var9 var17))) (= (read var10 var12) var2)) (not (valid var10 var12))) (= (alloc var1 var6) var8)) (= (getnode var11) var0)) (= (|node::n| var0) var5)) (= (write var13 var12 var3) var1)))) (_Glue9 var12 var14 var9 var10 var2))))
(assert (forall ((var0 Int) (var1 node) (var2 HeapObject) (var3 Heap) (var4 Addr) (var5 Addr) (var6 Addr)) (or (not (and (_Glue9 var6 var5 var4 var3 var2) (and (and (= (getnode var2) var1) (= (|node::h| var1) var0)) (valid var3 var6)))) (Inv_Heap_exp_exp var6 var0 var4))))
(assert (forall ((var0 node) (var1 Heap) (var2 HeapObject) (var3 node) (var4 Int) (var5 HeapObject) (var6 node) (var7 HeapObject) (var8 Heap) (var9 Addr) (var10 Addr) (var11 Addr) (var12 Int) (var13 Addr)) (or (not (and (and (Inv_Heap_exp_exp var13 var12 var11) (_Glue9 var13 var10 var9 var8 var7)) (and (and (and (and (and (and (and (and (= (O_node var6) var5) (= (node var4 var9) var3)) (= (O_node var3) var2)) (= (node var12 var11) var6)) (= (read var1 var13) var5)) (valid var1 var13)) (= (getnode var7) var0)) (= (|node::h| var0) var4)) (= (write var8 var13 var2) var1)))) (inv_main_3 var1 var10 var11))))
(assert (forall ((var0 HeapObject) (var1 node) (var2 Int) (var3 node) (var4 Addr) (var5 node) (var6 HeapObject) (var7 Heap) (var8 HeapObject) (var9 Heap) (var10 Addr) (var11 Addr) (var12 Addr)) (or (not (and (_Glue9 var12 var11 var10 var9 var8) (and (and (and (and (and (and (and (and (= (read var7 var12) var6) (= (getnode var6) var5)) (= (|node::n| var5) var4)) (not (valid var7 var12))) (= (getnode var8) var3)) (= (|node::h| var3) var2)) (= (node var2 var10) var1)) (= (O_node var1) var0)) (= (write var9 var12 var0) var7)))) (inv_main_3 var7 var11 var4))))
(assert (forall ((var0 HeapObject) (var1 node) (var2 Heap) (var3 Addr) (var4 Int) (var5 Addr)) (not (and (and (Inv_Heap_exp_exp var5 var4 var3) (inv_main_23 var2 var5)) (and (and (and (and (and (= (O_node var1) var0) (= (node var4 var3) var1)) (= (read var2 var5) var0)) (not (= var4 1))) (not (= var4 3))) (valid var2 var5))))))
(assert (forall ((var0 Int) (var1 node) (var2 HeapObject) (var3 Addr) (var4 Heap)) (not (and (inv_main_23 var4 var3) (and (and (and (and (and (= (read var4 var3) var2) (= (getnode var2) var1)) (= (|node::h| var1) var0)) (not (= var0 1))) (not (= var0 3))) (not (valid var4 var3)))))))
(assert (forall ((var0 HeapObject) (var1 node) (var2 Heap) (var3 Addr) (var4 Int) (var5 Addr)) (or (not (and (and (Inv_Heap_exp_exp var5 var4 var3) (inv_main_22 var2 var5)) (and (and (and (and (= (O_node var1) var0) (= (node var4 var3) var1)) (not (= var4 2))) (= (read var2 var5) var0)) (valid var2 var5)))) (inv_main_23 var2 var5))))
(assert (forall ((var0 node) (var1 HeapObject) (var2 Int) (var3 Addr) (var4 Heap)) (or (not (and (inv_main_22 var4 var3) (and (and (and (and (not (= var2 2)) (= (read var4 var3) var1)) (= (getnode var1) var0)) (= (|node::h| var0) var2)) (not (valid var4 var3))))) (inv_main_23 var4 var3))))
(check-sat)
